certificates/rado_a5_c228_N45.cnf
c Rad2 upper bound instance: x1 + 5*x2 - x3 = 228, interval [1,45]
p cnf 45 396
1 4 45 0
-1 -4 -45 0
2 5 45 0
-2 -5 -45 0
3 6 45 0
-3 -6 -45 0
4 7 45 0
-4 -7 -45 0
5 8 45 0
-5 -8 -45 0
1 9 44 0
-1 -9 -44 0
6 9 45 0
-6 -9 -45 0
2 10 44 0
-2 -10 -44 0
7 10 45 0
-7 -10 -45 0
3 11 44 0
-3 -11 -44 0
8 11 45 0
-8 -11 -45 0
4 12 44 0
-4 -12 -44 0
9 12 45 0
-9 -12 -45 0
5 13 44 0
-5 -13 -44 0
10 13 45 0
-10 -13 -45 0
1 14 43 0
-1 -14 -43 0
6 14 44 0
-6 -14 -44 0
11 14 45 0
-11 -14 -45 0
2 15 43 0
-2 -15 -43 0
7 15 44 0
-7 -15 -44 0
12 15 45 0
-12 -15 -45 0
3 16 43 0
-3 -16 -43 0
8 16 44 0
-8 -16 -44 0
13 16 45 0
-13 -16 -45 0
4 17 43 0
-4 -17 -43 0
9 17 44 0
-9 -17 -44 0
14 17 45 0
-14 -17 -45 0
5 18 43 0
-5 -18 -43 0
10 18 44 0
-10 -18 -44 0
15 18 45 0
-15 -18 -45 0
1 19 42 0
-1 -19 -42 0
6 19 43 0
-6 -19 -43 0
11 19 44 0
-11 -19 -44 0
16 19 45 0
-16 -19 -45 0
2 20 42 0
-2 -20 -42 0
7 20 43 0
-7 -20 -43 0
12 20 44 0
-12 -20 -44 0
17 20 45 0
-17 -20 -45 0
3 21 42 0
-3 -21 -42 0
8 21 43 0
-8 -21 -43 0
13 21 44 0
-13 -21 -44 0
18 21 45 0
-18 -21 -45 0
4 22 42 0
-4 -22 -42 0
9 22 43 0
-9 -22 -43 0
14 22 44 0
-14 -22 -44 0
19 22 45 0
-19 -22 -45 0
5 23 42 0
-5 -23 -42 0
10 23 43 0
-10 -23 -43 0
15 23 44 0
-15 -23 -44 0
20 23 45 0
-20 -23 -45 0
1 24 41 0
-1 -24 -41 0
6 24 42 0
-6 -24 -42 0
11 24 43 0
-11 -24 -43 0
16 24 44 0
-16 -24 -44 0
21 24 45 0
-21 -24 -45 0
2 25 41 0
-2 -25 -41 0
7 25 42 0
-7 -25 -42 0
12 25 43 0
-12 -25 -43 0
17 25 44 0
-17 -25 -44 0
22 25 45 0
-22 -25 -45 0
3 26 41 0
-3 -26 -41 0
8 26 42 0
-8 -26 -42 0
13 26 43 0
-13 -26 -43 0
18 26 44 0
-18 -26 -44 0
23 26 45 0
-23 -26 -45 0
4 27 41 0
-4 -27 -41 0
9 27 42 0
-9 -27 -42 0
14 27 43 0
-14 -27 -43 0
19 27 44 0
-19 -27 -44 0
24 27 45 0
-24 -27 -45 0
5 28 41 0
-5 -28 -41 0
10 28 42 0
-10 -28 -42 0
15 28 43 0
-15 -28 -43 0
20 28 44 0
-20 -28 -44 0
25 28 45 0
-25 -28 -45 0
1 29 40 0
-1 -29 -40 0
6 29 41 0
-6 -29 -41 0
11 29 42 0
-11 -29 -42 0
16 29 43 0
-16 -29 -43 0
21 29 44 0
-21 -29 -44 0
26 29 45 0
-26 -29 -45 0
2 30 40 0
-2 -30 -40 0
7 30 41 0
-7 -30 -41 0
12 30 42 0
-12 -30 -42 0
17 30 43 0
-17 -30 -43 0
22 30 44 0
-22 -30 -44 0
27 30 45 0
-27 -30 -45 0
3 31 40 0
-3 -31 -40 0
8 31 41 0
-8 -31 -41 0
13 31 42 0
-13 -31 -42 0
18 31 43 0
-18 -31 -43 0
23 31 44 0
-23 -31 -44 0
28 31 45 0
-28 -31 -45 0
4 32 40 0
-4 -32 -40 0
9 32 41 0
-9 -32 -41 0
14 32 42 0
-14 -32 -42 0
19 32 43 0
-19 -32 -43 0
24 32 44 0
-24 -32 -44 0
29 32 45 0
-29 -32 -45 0
5 33 40 0
-5 -33 -40 0
10 33 41 0
-10 -33 -41 0
15 33 42 0
-15 -33 -42 0
20 33 43 0
-20 -33 -43 0
25 33 44 0
-25 -33 -44 0
30 33 45 0
-30 -33 -45 0
1 34 39 0
-1 -34 -39 0
6 34 40 0
-6 -34 -40 0
11 34 41 0
-11 -34 -41 0
16 34 42 0
-16 -34 -42 0
21 34 43 0
-21 -34 -43 0
26 34 44 0
-26 -34 -44 0
31 34 45 0
-31 -34 -45 0
2 35 39 0
-2 -35 -39 0
7 35 40 0
-7 -35 -40 0
12 35 41 0
-12 -35 -41 0
17 35 42 0
-17 -35 -42 0
22 35 43 0
-22 -35 -43 0
27 35 44 0
-27 -35 -44 0
32 35 45 0
-32 -35 -45 0
3 36 39 0
-3 -36 -39 0
8 36 40 0
-8 -36 -40 0
13 36 41 0
-13 -36 -41 0
18 36 42 0
-18 -36 -42 0
23 36 43 0
-23 -36 -43 0
28 36 44 0
-28 -36 -44 0
33 36 45 0
-33 -36 -45 0
4 37 39 0
-4 -37 -39 0
9 37 40 0
-9 -37 -40 0
14 37 41 0
-14 -37 -41 0
19 37 42 0
-19 -37 -42 0
24 37 43 0
-24 -37 -43 0
29 37 44 0
-29 -37 -44 0
34 37 45 0
-34 -37 -45 0
5 38 39 0
-5 -38 -39 0
10 38 40 0
-10 -38 -40 0
15 38 41 0
-15 -38 -41 0
20 38 42 0
-20 -38 -42 0
25 38 43 0
-25 -38 -43 0
30 38 44 0
-30 -38 -44 0
35 38 45 0
-35 -38 -45 0
1 38 39 0
-1 -38 -39 0
6 39 0
-6 -39 0
11 39 40 0
-11 -39 -40 0
16 39 41 0
-16 -39 -41 0
21 39 42 0
-21 -39 -42 0
26 39 43 0
-26 -39 -43 0
31 39 44 0
-31 -39 -44 0
36 39 45 0
-36 -39 -45 0
2 38 40 0
-2 -38 -40 0
7 39 40 0
-7 -39 -40 0
12 40 0
-12 -40 0
17 40 41 0
-17 -40 -41 0
22 40 42 0
-22 -40 -42 0
27 40 43 0
-27 -40 -43 0
32 40 44 0
-32 -40 -44 0
37 40 45 0
-37 -40 -45 0
3 38 41 0
-3 -38 -41 0
8 39 41 0
-8 -39 -41 0
13 40 41 0
-13 -40 -41 0
18 41 0
-18 -41 0
23 41 42 0
-23 -41 -42 0
28 41 43 0
-28 -41 -43 0
33 41 44 0
-33 -41 -44 0
38 41 45 0
-38 -41 -45 0
4 38 42 0
-4 -38 -42 0
9 39 42 0
-9 -39 -42 0
14 40 42 0
-14 -40 -42 0
19 41 42 0
-19 -41 -42 0
24 42 0
-24 -42 0
29 42 43 0
-29 -42 -43 0
34 42 44 0
-34 -42 -44 0
39 42 45 0
-39 -42 -45 0
5 38 43 0
-5 -38 -43 0
10 39 43 0
-10 -39 -43 0
15 40 43 0
-15 -40 -43 0
20 41 43 0
-20 -41 -43 0
25 42 43 0
-25 -42 -43 0
30 43 0
-30 -43 0
35 43 44 0
-35 -43 -44 0
40 43 45 0
-40 -43 -45 0
1 37 44 0
-1 -37 -44 0
6 38 44 0
-6 -38 -44 0
11 39 44 0
-11 -39 -44 0
16 40 44 0
-16 -40 -44 0
21 41 44 0
-21 -41 -44 0
26 42 44 0
-26 -42 -44 0
31 43 44 0
-31 -43 -44 0
36 44 0
-36 -44 0
41 44 45 0
-41 -44 -45 0
2 37 45 0
-2 -37 -45 0
7 38 45 0
-7 -38 -45 0
12 39 45 0
-12 -39 -45 0
17 40 45 0
-17 -40 -45 0
22 41 45 0
-22 -41 -45 0
27 42 45 0
-27 -42 -45 0
32 43 45 0
-32 -43 -45 0
37 44 45 0
-37 -44 -45 0
42 45 0
-42 -45 0
