certificates/rado_a5_c228_N45.drat
-45 0
42 0
-24 0
21 0
27 0
-3 0
-39 0
-9 0
6 0
36 0
12 0
-18 0
-44 0
-30 0
-40 0
10 0
15 0
26 0
41 0
37 0
16 0
1 0
11 0
32 0
31 0
17 0
22 0
33 0
38 0
43 0
2 0
7 0
-23 0
-28 0
0
